13030
1 0 0 0 1 1 0 1 1 0 0 0 1 0 1 0 0 1 0 1 1 0 0 0 1 1 1 1 1 0 
20 25 20 14 20 5 19 24 14 17 24 8 8 20 17 14 14 17 5 0 14 0 5 17 5 8 19 24 5 24 5 25 20 25 20 20 24 24 0 14 0 14 24 8 24 14 0 20 27 8 5 14 14 5 20 20 17 27 0 14 0 5 20 27 0 25 24 0 5 24 20 20 5 17 24 8 26 20 14 24 20 7 20 17 17 17 17 4 20 5 14 24 7 0 7 5 14 19 25 20 8 7 14 25 19 25 7 0 14 28 14 14 0 0 25 25 24 24 24 24 5 8 25 20 8 0 5 24 0 12 0 27 24 5 8 14 7 5 20 0 0 8 20 14 8 25 25 5 0 5 
